H 
 1.0000000000000000
     5.2999999999999998    0.0000000000000000    0.0000000000000000
     0.0000000000000000    5.2999999999999998    0.0000000000000000
     0.0000000000000000    0.0000000000000000    5.2999999999999998
 H  
   8
Direct
  0.0698113207547170  0.0000000000000000  0.0000000000000000
  0.9301886792452830  0.0000000000000000  0.0000000000000000
  0.0698113207547170  0.4999999999999999  0.4999999999999999
  0.9301886792452830  0.4999999999999999  0.4999999999999999
  0.5698113207547171  0.0000000000000000  0.4999999999999999
  0.4301886792452830  0.0000000000000000  0.4999999999999999
  0.5698113207547171  0.4999999999999999  0.0000000000000000
  0.4301886792452830  0.4999999999999999  0.0000000000000000
