Si
 1.0000000000000000
     7.6791796436859059    0.0000000000000000    0.0000000000000000
     3.8395898218429525    6.6503646516563286    0.0000000000000000
     0.0000000000000000    0.0000000000000000   60.2963427031724208
 Si 
  64
Direct
  0.0000000000000000  0.0000000000000000  0.2985255687664278
  0.0000000000000005 -0.0000000000000002  0.3375206199729256
  0.0000000000000000  0.4999999999999999  0.2985255687664278
  0.0000000000000004  0.4999999999999998  0.3375206199729256
  0.5000000000000003 -0.0000000000000002  0.2985255687664278
  0.5000000000000003 -0.0000000000000002  0.3375206199729256
  0.5000000000000002  0.4999999999999998  0.2985255687664278
  0.5000000000000002  0.4999999999999998  0.3375206199729256
  0.6666666666666673  0.6666666666666663  0.3505189703750916
  0.6666666666666673  0.6666666666666663  0.3895140215815894
  0.6666666666666672  0.1666666666666665  0.3505189703750916
  0.6666666666666674  0.1666666666666664  0.3895140215815894
  0.1666666666666671  0.6666666666666663  0.3505189703750916
  0.1666666666666673  0.6666666666666663  0.3895140215815894
  0.1666666666666672  0.1666666666666664  0.3505189703750915
  0.1666666666666672  0.1666666666666665  0.3895140215815894
  0.3333333333333339  0.3333333333333331  0.4025123719837553
  0.3333333333333344  0.3333333333333328  0.4415074231902532
  0.3333333333333340  0.8333333333333329  0.4025123719837553
  0.3333333333333344  0.8333333333333329  0.4415074231902532
  0.8333333333333340  0.3333333333333330  0.4025123719837553
  0.8333333333333345  0.3333333333333330  0.4415074231902532
  0.8333333333333343  0.8333333333333329  0.4025123719837553
  0.8333333333333345  0.8333333333333329  0.4415074231902532
  0.0000000000000009 -0.0000000000000004  0.4545057735924191
  0.0000000000000009 -0.0000000000000004  0.4935008247989169
  0.0000000000000010  0.4999999999999996  0.4545057735924191
  0.0000000000000009  0.4999999999999994  0.4935008247989169
  0.5000000000000009 -0.0000000000000004  0.4545057735924191
  0.5000000000000009 -0.0000000000000004  0.4935008247989169
  0.5000000000000011  0.4999999999999996  0.4545057735924191
  0.5000000000000011  0.4999999999999996  0.4935008247989169
  0.6666666666666679  0.6666666666666663  0.5064991752010829
  0.6666666666666687  0.6666666666666661  0.5454942264075807
  0.6666666666666679  0.1666666666666662  0.5064991752010829
  0.6666666666666683  0.1666666666666659  0.5454942264075807
  0.1666666666666679  0.6666666666666663  0.5064991752010829
  0.1666666666666675  0.6666666666666663  0.5454942264075807
  0.1666666666666679  0.1666666666666662  0.5064991752010829
  0.1666666666666679  0.1666666666666664  0.5454942264075807
  0.3333333333333344  0.3333333333333328  0.5584925768097465
  0.3333333333333358  0.3333333333333325  0.5974876280162443
  0.3333333333333349  0.8333333333333324  0.5584925768097465
  0.3333333333333358  0.8333333333333324  0.5974876280162443
  0.8333333333333353  0.3333333333333328  0.5584925768097465
  0.8333333333333345  0.3333333333333330  0.5974876280162443
  0.8333333333333350  0.8333333333333324  0.5584925768097465
  0.8333333333333347  0.8333333333333328  0.5974876280162443
  0.0000000000000019 -0.0000000000000011  0.6104859784184105
  0.0000000000000019 -0.0000000000000011  0.6494810296249082
  0.0000000000000018  0.4999999999999992  0.6104859784184105
  0.0000000000000018  0.4999999999999992  0.6494810296249082
  0.5000000000000028 -0.0000000000000011  0.6104859784184106
  0.5000000000000018 -0.0000000000000004  0.6494810296249082
  0.5000000000000027  0.4999999999999991  0.6104859784184106
  0.5000000000000018  0.4999999999999992  0.6494810296249082
  0.6666666666666687  0.6666666666666661  0.6624793800270741
  0.6666666666666687  0.6666666666666656  0.7014744312335719
  0.6666666666666687  0.1666666666666661  0.6624793800270741
  0.6666666666666698  0.1666666666666659  0.7014744312335719
  0.1666666666666679  0.6666666666666661  0.6624793800270741
  0.1666666666666679  0.6666666666666661  0.7014744312335718
  0.1666666666666696  0.1666666666666659  0.6624793800270741
  0.1666666666666679  0.1666666666666659  0.7014744312335718
