Ti O 
 1.0000000000000000
     4.5940000000000003    0.0000000000000000    0.0000000000000000
     0.0000000000000000    4.5940000000000003    0.0000000000000000
     0.0000000000000000    0.0000000000000000    2.9590000000000001
 Ti  O  
   2   4
Direct
  0.0000000000000000  0.0000000000000000  0.0000000000000000
  0.4999999999999999  0.4999999999999999  0.4999999999999999
  0.3048000000000000  0.3048000000000000  0.0000000000000000
  0.6952000000000000  0.6952000000000000  0.0000000000000000
  0.8048000000000000  0.1952000000000000  0.4999999999999999
  0.1952000000000000  0.8048000000000000  0.4999999999999999
