Na Cl Na Cl Na Cl Na Cl
 1.0000000000000000
     5.6399999999999997    0.0000000000000000    0.0000000000000000
     0.0000000000000000    5.6399999999999997    0.0000000000000000
     0.0000000000000000    0.0000000000000000    5.6399999999999997
 Na  Cl  Na  Cl  Na  Cl  Na  Cl 
   1   1   1   1   1   1   1   1
Direct
  0.0000000000000000  0.0000000000000000  0.0000000000000000
  0.4999999999999999  0.0000000000000000  0.0000000000000000
  0.0000000000000000  0.4999999999999999  0.4999999999999999
  0.4999999999999999  0.4999999999999999  0.4999999999999999
  0.4999999999999999  0.0000000000000000  0.4999999999999999
  0.0000000000000000  0.0000000000000000  0.4999999999999999
  0.4999999999999999  0.4999999999999999  0.0000000000000000
  0.0000000000000000  0.4999999999999999  0.0000000000000000
