Se
 1.0000000000000000
     5.9580000000000002    0.0000000000000000    0.0000000000000000
    -2.9789999999999988    5.1597793557476859    0.0000000000000000
     0.0000000000000000    0.0000000000000000   14.2380000000000013
 Se 
  18
Direct
  0.0000000000000000  0.0000000000000000  0.0000000000000000
  0.0000000000000000  0.0000000000000000  0.1666666666666667
  0.0000000000000000  0.0000000000000000  0.3333333333333333
  0.0000000000000000  0.0000000000000000  0.4999999999999999
  0.0000000000000000  0.0000000000000000  0.6666666666666666
  0.0000000000000000  0.0000000000000000  0.8333333333333334
  0.3333333333333333  0.6666666666666666  0.0277777777777778
  0.3333333333333333  0.6666666666666666  0.1944444444444444
  0.3333333333333333  0.6666666666666666  0.3611111111111111
  0.3333333333333333  0.6666666666666666  0.5277777777777778
  0.3333333333333333  0.6666666666666666  0.6944444444444445
  0.3333333333333333  0.6666666666666666  0.8611111111111112
  0.6666666666666666  0.3333333333333333  0.0555555555555556
  0.6666666666666666  0.3333333333333333  0.2222222222222222
  0.6666666666666666  0.3333333333333333  0.3888888888888889
  0.6666666666666666  0.3333333333333333  0.5555555555555556
  0.6666666666666666  0.3333333333333333  0.7222222222222222
  0.6666666666666666  0.3333333333333333  0.8888888888888888
