Ca F  Ca F  Ca F  Ca F 
 1.0000000000000000
     5.4630000000000001    0.0000000000000000    0.0000000000000000
     0.0000000000000000    5.4630000000000001    0.0000000000000000
     0.0000000000000000    0.0000000000000000    5.4630000000000001
 Ca  F   Ca  F   Ca  F   Ca  F  
   1   2   1   2   1   2   1   2
Direct
  0.0000000000000000  0.0000000000000000  0.0000000000000000
  0.2500000000000000  0.2500000000000000  0.2500000000000000
  0.7500000000000000  0.7500000000000000  0.7500000000000000
  0.0000000000000000  0.4999999999999999  0.4999999999999999
  0.2500000000000000  0.7500000000000000  0.7500000000000000
  0.7500000000000000  0.2500000000000000  0.2500000000000000
  0.4999999999999999  0.0000000000000000  0.4999999999999999
  0.7500000000000000  0.2500000000000000  0.7500000000000000
  0.2500000000000000  0.7500000000000000  0.2500000000000000
  0.4999999999999999  0.4999999999999999  0.0000000000000000
  0.7500000000000000  0.7500000000000000  0.2500000000000000
  0.2500000000000000  0.2500000000000000  0.7500000000000000
