Si
 1.0000000000000000
     7.6791796436859059    0.0000000000000000    0.0000000000000000
     3.8395898218429525    6.6503646516563286    0.0000000000000000
     0.0000000000000000    0.0000000000000000   51.1613307414727601
 Si 
  56
Direct
  0.0000000000000000  0.0000000000000000  0.2931901845125501
  0.0000000000000003 -0.0000000000000002  0.3391479212875390
  0.0000000000000000  0.4999999999999999  0.2931901845125501
  0.0000000000000005  0.4999999999999998  0.3391479212875389
  0.5000000000000001  0.0000000000000000  0.2931901845125501
  0.5000000000000002 -0.0000000000000002  0.3391479212875389
  0.5000000000000000  0.4999999999999999  0.2931901845125501
  0.5000000000000001  0.4999999999999998  0.3391479212875390
  0.6666666666666672  0.6666666666666666  0.3544671668792019
  0.6666666666666673  0.6666666666666663  0.4004249036541908
  0.6666666666666672  0.1666666666666666  0.3544671668792019
  0.6666666666666672  0.1666666666666665  0.4004249036541908
  0.1666666666666671  0.6666666666666663  0.3544671668792019
  0.1666666666666671  0.6666666666666663  0.4004249036541908
  0.1666666666666670  0.1666666666666665  0.3544671668792019
  0.1666666666666670  0.1666666666666666  0.4004249036541908
  0.3333333333333338  0.3333333333333331  0.4157441492458537
  0.3333333333333344  0.3333333333333330  0.4617018860208426
  0.3333333333333338  0.8333333333333330  0.4157441492458537
  0.3333333333333344  0.8333333333333329  0.4617018860208426
  0.8333333333333337  0.3333333333333331  0.4157441492458537
  0.8333333333333339  0.3333333333333331  0.4617018860208426
  0.8333333333333338  0.8333333333333329  0.4157441492458537
  0.8333333333333340  0.8333333333333329  0.4617018860208426
  0.0000000000000005 -0.0000000000000004  0.4770211316125055
  0.0000000000000009 -0.0000000000000004  0.5229788683874944
  0.0000000000000005  0.4999999999999997  0.4770211316125055
  0.0000000000000009  0.4999999999999994  0.5229788683874944
  0.5000000000000006 -0.0000000000000004  0.4770211316125055
  0.4999999999999999  0.0000000000000000  0.5229788683874944
  0.5000000000000008  0.4999999999999997  0.4770211316125055
  0.5000000000000004  0.4999999999999998  0.5229788683874944
  0.6666666666666675  0.6666666666666663  0.5382981139791574
  0.6666666666666679  0.6666666666666663  0.5842558507541462
  0.6666666666666679  0.1666666666666665  0.5382981139791574
  0.6666666666666679  0.1666666666666662  0.5842558507541462
  0.1666666666666675  0.6666666666666663  0.5382981139791574
  0.1666666666666671  0.6666666666666663  0.5842558507541462
  0.1666666666666675  0.1666666666666665  0.5382981139791574
  0.1666666666666675  0.1666666666666664  0.5842558507541462
  0.3333333333333339  0.3333333333333330  0.5995750963458092
  0.3333333333333349  0.3333333333333328  0.6455328331207981
  0.3333333333333343  0.8333333333333328  0.5995750963458092
  0.3333333333333348  0.8333333333333328  0.6455328331207981
  0.8333333333333345  0.3333333333333330  0.5995750963458092
  0.8333333333333340  0.3333333333333331  0.6455328331207981
  0.8333333333333343  0.8333333333333328  0.5995750963458092
  0.8333333333333340  0.8333333333333330  0.6455328331207981
  0.0000000000000009 -0.0000000000000004  0.6608520787124610
  0.0000000000000010 -0.0000000000000011  0.7068098154874499
  0.0000000000000009  0.4999999999999995  0.6608520787124610
  0.0000000000000009  0.4999999999999992  0.7068098154874499
  0.5000000000000018 -0.0000000000000004  0.6608520787124610
  0.5000000000000009  0.0000000000000000  0.7068098154874499
  0.5000000000000018  0.4999999999999992  0.6608520787124610
  0.5000000000000009  0.4999999999999995  0.7068098154874499
