Se
 1.0000000000000000
    15.0000000000000000    0.0000000000000000    0.0000000000000000
     0.0000000000000000   15.0000000000000000    0.0000000000000000
     0.0000000000000000    0.0000000000000000   25.0000000000000000
 Se 
   8
Direct
  0.4999999999999999  0.4999999999999999  0.1000000000000000
  0.4999999999999999  0.4999999999999999  0.1949200000000000
  0.4999999999999999  0.4999999999999999  0.2898400000000000
  0.4999999999999999  0.4999999999999999  0.3847600000000000
  0.4999999999999999  0.4999999999999999  0.4796800000000001
  0.4999999999999999  0.4999999999999999  0.5746000000000001
  0.4999999999999999  0.4999999999999999  0.6695200000000000
  0.4999999999999999  0.4999999999999999  0.7644400000000000
