Mo S  Mo S  Mo S  Mo S 
 1.0000000000000000
     3.1600000000000001    0.0000000000000000    0.0000000000000000
    -1.5799999999999994    2.7366402759588264    0.0000000000000000
     0.0000000000000000    0.0000000000000000   24.6000000000000014
 Mo  S   Mo  S   Mo  S   Mo  S  
   1   2   1   2   1   2   1   2
Direct
  0.0000000000000000  0.0000000000000000  0.1250000000000000
  0.3333333333333333  0.6666666666666666  0.1894715447154471
  0.3333333333333333  0.6666666666666666  0.0605284552845528
  0.6666666666666665  0.3333333333333333  0.3750000000000001
  0.0000000000000000  0.0000000000000000  0.4394715447154471
  0.0000000000000000  0.0000000000000000  0.3105284552845529
  0.0000000000000000  0.0000000000000000  0.6250000000000000
  0.3333333333333333  0.6666666666666666  0.6894715447154472
  0.3333333333333333  0.6666666666666666  0.5605284552845529
  0.6666666666666665  0.3333333333333333  0.8750000000000002
  0.0000000000000000  0.0000000000000000  0.9394715447154471
  0.0000000000000000  0.0000000000000000  0.8105284552845529
