H  O 
 1.0000000000000000
     5.5999999999999996    0.0000000000000000    0.0000000000000000
     0.0000000000000000    5.5999999999999996    0.0000000000000000
     0.0000000000000000    0.0000000000000000    5.5999999999999996
 H   O  
   8   4
Direct
  0.0000000000000000  0.0000000000000000  0.0000000000000000
  0.1355357142857143  0.1050000000000000  0.0000000000000000
  0.8644642857142858  0.1050000000000000  0.0000000000000000
  0.0000000000000000  0.4999999999999999  0.4999999999999999
  0.1355357142857143  0.6050000000000000  0.4999999999999999
  0.8644642857142858  0.6050000000000000  0.4999999999999999
  0.4999999999999999  0.0000000000000000  0.4999999999999999
  0.6355357142857142  0.1050000000000000  0.4999999999999999
  0.3644642857142857  0.1050000000000000  0.4999999999999999
  0.4999999999999999  0.4999999999999999  0.0000000000000000
  0.6355357142857142  0.6050000000000000  0.0000000000000000
  0.3644642857142857  0.6050000000000000  0.0000000000000000
