Se
 1.0000000000000000
    15.0000000000000000    0.0000000000000000    0.0000000000000000
     0.0000000000000000   15.0000000000000000    0.0000000000000000
     0.0000000000000000    0.0000000000000000   18.9840000000000018
 Se 
   8
Direct
  0.4999999999999999  0.4999999999999999  0.0000000000000000
  0.4999999999999999  0.4999999999999999  0.1250000000000000
  0.4999999999999999  0.4999999999999999  0.2500000000000000
  0.4999999999999999  0.4999999999999999  0.3750000000000000
  0.4999999999999999  0.4999999999999999  0.4999999999999999
  0.4999999999999999  0.4999999999999999  0.6250000000000000
  0.4999999999999999  0.4999999999999999  0.7500000000000000
  0.4999999999999999  0.4999999999999999  0.8749999999999999
