Se
 1.0000000000000000
     5.5430000000000001    0.0000000000000000    0.0000000000000000
    -2.7714999999999987    4.8003788131771437    0.0000000000000000
     0.0000000000000000    0.0000000000000000    7.1190000000000007
 Se 
   9
Direct
  0.0000000000000000  0.0000000000000000  0.0000000000000000
  0.0000000000000000  0.0000000000000000  0.3333333333333333
  0.0000000000000000  0.0000000000000000  0.6666666666666666
  0.3333333333333333  0.6666666666666666  0.0000000000000000
  0.3333333333333333  0.6666666666666666  0.3333333333333333
  0.3333333333333333  0.6666666666666666  0.6666666666666666
  0.6666666666666664  0.3333333333333333  0.0000000000000000
  0.6666666666666664  0.3333333333333333  0.3333333333333333
  0.6666666666666664  0.3333333333333333  0.6666666666666666
