Se
 1.0000000000000000
     5.9580000000000002    0.0000000000000000    0.0000000000000000
    -2.9789999999999988    5.1597793557476859    0.0000000000000000
     0.0000000000000000    0.0000000000000000    7.1190000000000007
 Se 
   9
Direct
  0.0000000000000000  0.0000000000000000  0.0000000000000000
  0.0000000000000000  0.0000000000000000  0.3333333333333333
  0.0000000000000000  0.0000000000000000  0.6666666666666666
  0.3333333333333333  0.6666666666666666  0.1111111111111111
  0.3333333333333333  0.6666666666666666  0.4444444444444444
  0.3333333333333333  0.6666666666666666  0.7777777777777778
  0.6666666666666666  0.3333333333333333  0.2222222222222222
  0.6666666666666666  0.3333333333333333  0.5555555555555555
  0.6666666666666666  0.3333333333333333  0.8888888888888888
