C  H 
 1.0000000000000000
    15.0000000000000000    0.0000000000000000    0.0000000000000000
     0.0000000000000000   15.0000000000000000    0.0000000000000000
     0.0000000000000000    0.0000000000000000   15.0000000000000000
 C   H  
   1   4
Direct
  0.4999999999999999  0.4999999999999999  0.4999999999999999
  0.5419333333333333  0.5419333333333333  0.5419333333333333
  0.4580666666666667  0.4580666666666667  0.5419333333333333
  0.4580666666666667  0.5419333333333333  0.4580666666666667
  0.5419333333333333  0.4580666666666667  0.4580666666666667
