C 
 1.0000000000000000
    15.0000000000000000    0.0000000000000000    0.0000000000000000
     0.0000000000000000   15.0000000000000000    0.0000000000000000
     0.0000000000000000    0.0000000000000000   15.0000000000000000
 C  
   8
Direct
  0.4999999999999999  0.4999999999999999  0.0666666666666667
  0.4999999999999999  0.4999999999999999  0.1533333333333333
  0.4999999999999999  0.4999999999999999  0.2400000000000000
  0.4999999999999999  0.4999999999999999  0.3266666666666667
  0.4999999999999999  0.4999999999999999  0.4133333333333333
  0.4999999999999999  0.4999999999999999  0.4999999999999999
  0.4999999999999999  0.4999999999999999  0.5866666666666667
  0.4999999999999999  0.4999999999999999  0.6733333333333333
