Si
 1.0000000000000000
     7.6791796436859059    0.0000000000000000    0.0000000000000000
     3.8395898218429525    6.6503646516563286    0.0000000000000000
     0.0000000000000000    0.0000000000000000   35.7562948563737493
 Si 
  32
Direct
  0.0000000000000000  0.0000000000000000  0.3356052423273083
  0.0000000000000005 -0.0000000000000002  0.4013631453963850
  0.0000000000000000  0.4999999999999999  0.3356052423273083
  0.0000000000000004  0.4999999999999998  0.4013631453963850
  0.5000000000000003 -0.0000000000000002  0.3356052423273083
  0.5000000000000003 -0.0000000000000002  0.4013631453963850
  0.5000000000000002  0.4999999999999998  0.3356052423273083
  0.5000000000000002  0.4999999999999998  0.4013631453963850
  0.6666666666666673  0.6666666666666663  0.4232824464194106
  0.6666666666666673  0.6666666666666663  0.4890403494884872
  0.6666666666666672  0.1666666666666665  0.4232824464194106
  0.6666666666666674  0.1666666666666664  0.4890403494884872
  0.1666666666666671  0.6666666666666663  0.4232824464194105
  0.1666666666666673  0.6666666666666663  0.4890403494884872
  0.1666666666666672  0.1666666666666664  0.4232824464194105
  0.1666666666666672  0.1666666666666665  0.4890403494884872
  0.3333333333333339  0.3333333333333331  0.5109596505115128
  0.3333333333333344  0.3333333333333328  0.5767175535805895
  0.3333333333333340  0.8333333333333329  0.5109596505115128
  0.3333333333333344  0.8333333333333329  0.5767175535805895
  0.8333333333333340  0.3333333333333330  0.5109596505115126
  0.8333333333333345  0.3333333333333330  0.5767175535805895
  0.8333333333333343  0.8333333333333329  0.5109596505115128
  0.8333333333333345  0.8333333333333329  0.5767175535805895
  0.0000000000000009 -0.0000000000000004  0.5986368546036150
  0.0000000000000009 -0.0000000000000004  0.6643947576726915
  0.0000000000000010  0.4999999999999996  0.5986368546036150
  0.0000000000000009  0.4999999999999994  0.6643947576726915
  0.5000000000000009 -0.0000000000000004  0.5986368546036150
  0.5000000000000009 -0.0000000000000004  0.6643947576726915
  0.5000000000000011  0.4999999999999996  0.5986368546036150
  0.5000000000000011  0.4999999999999996  0.6643947576726915
