N 
 1.0000000000000000
     5.6600000000000001    0.0000000000000000    0.0000000000000000
     0.0000000000000000    5.6600000000000001    0.0000000000000000
     0.0000000000000000    0.0000000000000000    5.6600000000000001
 N  
   8
Direct
  0.0971731448763251  0.0000000000000000  0.0000000000000000
  0.9028268551236750  0.0000000000000000  0.0000000000000000
  0.0971731448763251  0.4999999999999999  0.4999999999999999
  0.9028268551236750  0.4999999999999999  0.4999999999999999
  0.5971731448763252  0.0000000000000000  0.4999999999999999
  0.4028268551236749  0.0000000000000000  0.4999999999999999
  0.5971731448763252  0.4999999999999999  0.0000000000000000
  0.4028268551236749  0.4999999999999999  0.0000000000000000
