Mo S  Mo S 
 1.0000000000000000
     3.1600000000000001    0.0000000000000000    0.0000000000000000
    -1.5799999999999994    2.7366402759588264    0.0000000000000000
     0.0000000000000000    0.0000000000000000   12.3000000000000007
 Mo  S   Mo  S  
   1   2   1   2
Direct
  0.0000000000000000  0.0000000000000000  0.1250000000000000
  0.3333333333333333  0.6666666666666666  0.2539430894308943
  0.3333333333333333  0.6666666666666666  0.9960569105691058
  0.6666666666666665  0.3333333333333333  0.6250000000000000
  0.0000000000000000  0.0000000000000000  0.7539430894308943
  0.0000000000000000  0.0000000000000000  0.4960569105691057
