Si
 1.0000000000000000
     5.4310000000000000    0.0000000000000000    0.0000000000000000
     0.0000000000000000    5.4310000000000000    0.0000000000000000
     0.0000000000000000    0.0000000000000000    5.4310000000000000
 Si 
   8
Direct
  0.0000000000000000  0.0000000000000000  0.0000000000000000
  0.2499999999999999  0.2499999999999999  0.2499999999999999
  0.0000000000000000  0.4999999999999999  0.4999999999999999
  0.2499999999999999  0.7499999999999999  0.7499999999999999
  0.4999999999999999  0.0000000000000000  0.4999999999999999
  0.7499999999999999  0.2499999999999999  0.7499999999999999
  0.4999999999999999  0.4999999999999999  0.0000000000000000
  0.7499999999999999  0.7499999999999999  0.2499999999999999
