C 
 1.0000000000000000
    18.0000000000000000    0.0000000000000000    0.0000000000000000
     0.0000000000000000   18.0000000000000000    0.0000000000000000
     0.0000000000000000    0.0000000000000000   15.6000000000000014
 C  
  12
Direct
  0.4999999999999999  0.4999999999999999  0.0000000000000000
  0.4999999999999999  0.4999999999999999  0.0833333333333333
  0.4999999999999999  0.4999999999999999  0.1666666666666667
  0.4999999999999999  0.4999999999999999  0.2500000000000000
  0.4999999999999999  0.4999999999999999  0.3333333333333333
  0.4999999999999999  0.4999999999999999  0.4166666666666666
  0.4999999999999999  0.4999999999999999  0.4999999999999999
  0.4999999999999999  0.4999999999999999  0.5833333333333333
  0.4999999999999999  0.4999999999999999  0.6666666666666666
  0.4999999999999999  0.4999999999999999  0.7500000000000000
  0.4999999999999999  0.4999999999999999  0.8333333333333333
  0.4999999999999999  0.4999999999999999  0.9166666666666666
