Mo S 
 1.0000000000000000
     3.1600000000000001    0.0000000000000000    0.0000000000000000
    -1.5799999999999994    2.7366402759588264    0.0000000000000000
     0.0000000000000000    0.0000000000000000   18.4499999999999993
 Mo  S  
   2   4
Direct
  0.0000000000000000  0.0000000000000000  0.2500000000000000
  0.6666666666666665  0.3333333333333333  0.7500000000000000
  0.3333333333333333  0.6666666666666666  0.3359620596205962
  0.3333333333333333  0.6666666666666666  0.1640379403794038
  0.0000000000000000  0.0000000000000000  0.8359620596205962
  0.0000000000000000  0.0000000000000000  0.6640379403794039
