Si
 1.0000000000000000
     7.6791796436859059    0.0000000000000000    0.0000000000000000
     3.8395898218429525    6.6503646516563286    0.0000000000000000
     0.0000000000000000    0.0000000000000000   38.8913068180734243
 Si 
  40
Direct
  0.0000000000000000  0.0000000000000000  0.3085522442363239
  0.0000000000000002  0.0000000000000001  0.3690094302669585
  0.0000000000000000  0.4999999999999998  0.3085522442363239
  0.0000000000000000  0.4999999999999999  0.3690094302669585
  0.5000000000000001  0.0000000000000000  0.3085522442363239
  0.5000000000000001  0.0000000000000000  0.3690094302669584
  0.5000000000000000  0.4999999999999999  0.3085522442363239
  0.5000000000000001  0.4999999999999998  0.3690094302669584
  0.6666666666666670  0.6666666666666667  0.3891618256105033
  0.6666666666666670  0.6666666666666667  0.4496190116411379
  0.6666666666666670  0.1666666666666667  0.3891618256105033
  0.6666666666666670  0.1666666666666667  0.4496190116411379
  0.1666666666666667  0.6666666666666667  0.3891618256105033
  0.1666666666666670  0.6666666666666667  0.4496190116411379
  0.1666666666666668  0.1666666666666667  0.3891618256105033
  0.1666666666666668  0.1666666666666667  0.4496190116411379
  0.3333333333333336  0.3333333333333335  0.4697714069846827
  0.3333333333333339  0.3333333333333334  0.5302285930153173
  0.3333333333333337  0.8333333333333335  0.4697714069846827
  0.3333333333333340  0.8333333333333334  0.5302285930153173
  0.8333333333333336  0.3333333333333335  0.4697714069846827
  0.8333333333333336  0.3333333333333335  0.5302285930153173
  0.8333333333333338  0.8333333333333335  0.4697714069846827
  0.8333333333333338  0.8333333333333335  0.5302285930153173
  0.0000000000000000  0.0000000000000002  0.5503809883588621
  0.0000000000000009  0.0000000000000002  0.6108381743894967
  0.0000000000000004  0.5000000000000001  0.5503809883588621
  0.0000000000000009  0.4999999999999998  0.6108381743894967
  0.5000000000000004  0.0000000000000002  0.5503809883588621
  0.4999999999999995  0.0000000000000004  0.6108381743894967
  0.5000000000000000  0.5000000000000001  0.5503809883588621
  0.4999999999999999  0.5000000000000002  0.6108381743894967
  0.6666666666666672  0.6666666666666670  0.6309905697330415
  0.6666666666666679  0.6666666666666667  0.6914477557636761
  0.6666666666666672  0.1666666666666669  0.6309905697330415
  0.6666666666666674  0.1666666666666669  0.6914477557636761
  0.1666666666666666  0.6666666666666670  0.6309905697330415
  0.1666666666666665  0.6666666666666674  0.6914477557636761
  0.1666666666666670  0.1666666666666669  0.6309905697330415
  0.1666666666666670  0.1666666666666671  0.6914477557636761
