C 
 1.0000000000000000
     2.4600000000000000    0.0000000000000000    0.0000000000000000
    -1.2299999999999995    2.1304224933097191    0.0000000000000000
     0.0000000000000000    0.0000000000000000   26.8000000000000007
 C  
   8
Direct
  0.0000000000000000  0.0000000000000000  0.1250000000000000
  0.3333333333333333  0.6666666666666666  0.1250000000000000
  0.6666666666666665  0.3333333333333333  0.3750000000000000
  0.0000000000000000  0.0000000000000000  0.3750000000000000
  0.0000000000000000  0.0000000000000000  0.6250000000000000
  0.3333333333333333  0.6666666666666666  0.6250000000000000
  0.6666666666666665  0.3333333333333333  0.8749999999999999
  0.0000000000000000  0.0000000000000000  0.8749999999999999
