Si
 1.0000000000000000
     7.6791796436859059    0.0000000000000000    0.0000000000000000
     3.8395898218429525    6.6503646516563286    0.0000000000000000
     0.0000000000000000    0.0000000000000000   48.0263187797730922
 Si 
  48
Direct
  0.0000000000000000  0.0000000000000000  0.3123287476765229
  0.0000000000000003 -0.0000000000000002  0.3612864656739518
  0.0000000000000000  0.4999999999999999  0.3123287476765229
  0.0000000000000004  0.4999999999999998  0.3612864656739518
  0.5000000000000002 -0.0000000000000002  0.3123287476765229
  0.5000000000000002 -0.0000000000000002  0.3612864656739518
  0.5000000000000001  0.4999999999999998  0.3123287476765229
  0.5000000000000001  0.4999999999999998  0.3612864656739518
  0.6666666666666672  0.6666666666666663  0.3776057050064279
  0.6666666666666673  0.6666666666666663  0.4265634230038568
  0.6666666666666672  0.1666666666666665  0.3776057050064279
  0.6666666666666672  0.1666666666666664  0.4265634230038568
  0.1666666666666671  0.6666666666666663  0.3776057050064279
  0.1666666666666671  0.6666666666666663  0.4265634230038568
  0.1666666666666672  0.1666666666666664  0.3776057050064279
  0.1666666666666670  0.1666666666666665  0.4265634230038568
  0.3333333333333337  0.3333333333333331  0.4428826623363331
  0.3333333333333344  0.3333333333333328  0.4918403803337620
  0.3333333333333338  0.8333333333333329  0.4428826623363331
  0.3333333333333344  0.8333333333333329  0.4918403803337620
  0.8333333333333340  0.3333333333333330  0.4428826623363331
  0.8333333333333340  0.3333333333333330  0.4918403803337620
  0.8333333333333340  0.8333333333333329  0.4428826623363331
  0.8333333333333343  0.8333333333333329  0.4918403803337620
  0.0000000000000005 -0.0000000000000004  0.5081596196662381
  0.0000000000000009 -0.0000000000000004  0.5571173376636670
  0.0000000000000005  0.4999999999999996  0.5081596196662381
  0.0000000000000009  0.4999999999999994  0.5571173376636670
  0.5000000000000006 -0.0000000000000004  0.5081596196662381
  0.5000000000000006 -0.0000000000000004  0.5571173376636670
  0.5000000000000011  0.4999999999999996  0.5081596196662381
  0.5000000000000004  0.4999999999999996  0.5571173376636670
  0.6666666666666674  0.6666666666666663  0.5734365769961434
  0.6666666666666679  0.6666666666666661  0.6223942949935721
  0.6666666666666679  0.1666666666666662  0.5734365769961434
  0.6666666666666679  0.1666666666666659  0.6223942949935721
  0.1666666666666675  0.6666666666666663  0.5734365769961434
  0.1666666666666671  0.6666666666666663  0.6223942949935721
  0.1666666666666675  0.1666666666666662  0.5734365769961434
  0.1666666666666675  0.1666666666666664  0.6223942949935721
  0.3333333333333339  0.3333333333333328  0.6387135343260484
  0.3333333333333350  0.3333333333333325  0.6876712523234771
  0.3333333333333344  0.8333333333333324  0.6387135343260484
  0.3333333333333349  0.8333333333333324  0.6876712523234771
  0.8333333333333345  0.3333333333333328  0.6387135343260483
  0.8333333333333340  0.3333333333333330  0.6876712523234771
  0.8333333333333345  0.8333333333333324  0.6387135343260483
  0.8333333333333343  0.8333333333333328  0.6876712523234771
